outputs/case_396.model.txt
fee_disclosed_clearly = True
fee_charged = False
agent_type = True
management_rules_set_by_authority = True
minimum_amount_and_implementation_set_by_authority = True
duty_of_care_observed = True
duty_of_fidelity_observed = True
bank_permitted_by_authority = False
bank_operate_as_agent = False
bank_operate_as_broker = False
insurance_agent_or_broker_permitted = False
related_insurance_purchased = True
duty_of_care_and_fidelity = True
license_permitted = True
penalty = False
qualification_and_management_rules = True
insurance_type = False
related_insurance_type = False
written_report_provided = True
practice_certificate_held = True
written_report_and_fee_disclosure = True
license_and_guarantee_required = True
guarantee_deposit_paid = True
minimum_amount_and_implementation = True